instances/shortest_path/discrete/shortest_path_8_6.lp
\ Model nohadani_8_6
\ LP format - for model browsing. Use MPS format to capture full model detail.
\ Signature: 0x229cff0c87735314
Minimize
  83.2586331859946 y[0,1] + 58.309518948453 y[0,3]
   + 77.79460135510689 y[0,6] + 59.66573556070519 y[0,7]
   + 83.2586331859946 y[1,0] + 31.01612483854165 y[1,2]
   + 85.44003745317531 y[1,3] + 22.56102834535696 y[1,4]
   + 17.20465053408525 y[1,5] + 28.2842712474619 y[1,6]
   + 30.26549190084311 y[1,7] + 31.01612483854165 y[2,1]
   + 51.35172830587107 y[2,4] + 43.01162633521314 y[2,5]
   + 57.9827560572969 y[2,6] + 52.63078946776307 y[2,7]
   + 58.309518948453 y[3,0] + 85.44003745317531 y[3,1]
   + 87.02298546935747 y[3,4] + 62.12889826803627 y[3,6]
   + 55.71355310873648 y[3,7] + 22.56102834535696 y[4,1]
   + 51.35172830587107 y[4,2] + 87.02298546935747 y[4,3]
   + 9.433981132056603 y[4,5] + 25.07987240796891 y[4,6]
   + 39.35733730830886 y[4,7] + 17.20465053408525 y[5,1]
   + 43.01162633521314 y[5,2] + 9.433981132056603 y[5,4]
   + 30.59411708155671 y[5,6] + 41.23105625617661 y[5,7]
   + 77.79460135510689 y[6,0] + 28.2842712474619 y[6,1]
   + 57.9827560572969 y[6,2] + 62.12889826803627 y[6,3]
   + 25.07987240796891 y[6,4] + 30.59411708155671 y[6,5]
   + 18.86796226411321 y[6,7] + 59.66573556070519 y[7,0]
   + 30.26549190084311 y[7,1] + 52.63078946776307 y[7,2]
   + 55.71355310873648 y[7,3] + 39.35733730830886 y[7,4]
   + 41.23105625617661 y[7,5] + 18.86796226411321 y[7,6] + x[0,1] + x[0,3]
   + x[0,6] + x[0,7] + x[1,0] + x[1,2] + x[1,3] + x[1,4] + x[1,5] + x[1,6]
   + x[1,7] + x[2,1] + x[2,4] + x[2,5] + x[2,6] + x[2,7] + x[3,0] + x[3,1]
   + x[3,4] + x[3,6] + x[3,7] + x[4,1] + x[4,2] + x[4,3] + x[4,5] + x[4,6]
   + x[4,7] + x[5,1] + x[5,2] + x[5,4] + x[5,6] + x[5,7] + x[6,0] + x[6,1]
   + x[6,2] + x[6,3] + x[6,4] + x[6,5] + x[6,7] + x[7,0] + x[7,1] + x[7,2]
   + x[7,3] + x[7,4] + x[7,5] + x[7,6] + 8.32586331859946 r[0,1]
   + 5.830951894845301 r[0,3] + 7.779460135510689 r[0,6]
   + 5.96657355607052 r[0,7] + 8.32586331859946 r[1,0]
   + 3.101612483854165 r[1,2] + 8.54400374531753 r[1,3]
   + 2.256102834535695 r[1,4] + 1.720465053408526 r[1,5]
   + 2.82842712474619 r[1,6] + 3.026549190084312 r[1,7]
   + 3.101612483854165 r[2,1] + 5.135172830587107 r[2,4]
   + 4.301162633521314 r[2,5] + 5.79827560572969 r[2,6]
   + 5.263078946776307 r[2,7] + 5.830951894845301 r[3,0]
   + 8.54400374531753 r[3,1] + 8.702298546935747 r[3,4]
   + 6.212889826803627 r[3,6] + 5.571355310873648 r[3,7]
   + 2.256102834535695 r[4,1] + 5.135172830587107 r[4,2]
   + 8.702298546935747 r[4,3] + 0.9433981132056604 r[4,5]
   + 2.507987240796891 r[4,6] + 3.935733730830886 r[4,7]
   + 1.720465053408526 r[5,1] + 4.301162633521314 r[5,2]
   + 0.9433981132056604 r[5,4] + 3.059411708155671 r[5,6]
   + 4.123105625617661 r[5,7] + 7.779460135510689 r[6,0]
   + 2.82842712474619 r[6,1] + 5.79827560572969 r[6,2]
   + 6.212889826803627 r[6,3] + 2.507987240796891 r[6,4]
   + 3.059411708155671 r[6,5] + 1.886796226411321 r[6,7]
   + 5.96657355607052 r[7,0] + 3.026549190084312 r[7,1]
   + 5.263078946776307 r[7,2] + 5.571355310873648 r[7,3]
   + 3.935733730830886 r[7,4] + 4.123105625617661 r[7,5]
   + 1.886796226411321 r[7,6]
Subject To
 flow_cons_inner_nodes[0]: - y[0,1] - y[0,3] - y[0,6] - y[0,7] + y[1,0]
   + y[3,0] + y[6,0] + y[7,0] = 0
 flow_cons_inner_nodes[1]: y[0,1] - y[1,0] - y[1,2] - y[1,3] - y[1,4]
   - y[1,5] - y[1,6] - y[1,7] + y[2,1] + y[3,1] + y[4,1] + y[5,1] + y[6,1]
   + y[7,1] = 0
 flow_cons_inner_nodes[4]: y[1,4] + y[2,4] + y[3,4] - y[4,1] - y[4,2]
   - y[4,3] - y[4,5] - y[4,6] - y[4,7] + y[5,4] + y[6,4] + y[7,4] = 0
 flow_cons_inner_nodes[5]: y[1,5] + y[2,5] + y[4,5] - y[5,1] - y[5,2]
   - y[5,4] - y[5,6] - y[5,7] + y[6,5] + y[7,5] = 0
 flow_cons_inner_nodes[6]: y[0,6] + y[1,6] + y[2,6] + y[3,6] + y[4,6]
   + y[5,6] - y[6,0] - y[6,1] - y[6,2] - y[6,3] - y[6,4] - y[6,5] - y[6,7]
   + y[7,6] = 0
 flow_cons_inner_nodes[7]: y[0,7] + y[1,7] + y[2,7] + y[3,7] + y[4,7]
   + y[5,7] + y[6,7] - y[7,0] - y[7,1] - y[7,2] - y[7,3] - y[7,4] - y[7,5]
   - y[7,6] = 0
 flow_cons_source: - y[1,2] + y[2,1] + y[2,4] + y[2,5] + y[2,6] + y[2,7]
   - y[4,2] - y[5,2] - y[6,2] - y[7,2] = 1
 flow_cons_target: y[0,3] + y[1,3] - y[3,0] - y[3,1] - y[3,4] - y[3,6]
   - y[3,7] + y[4,3] + y[6,3] + y[7,3] = 1
 primal_lower: 4.231576691760557 x[0,1] + 0.9921714880483884 x[0,3]
   + 2.510393656117148 x[0,6] + 0.839238606148319 x[0,7]
   + 1.917370208166784 x[1,0] + 2.564292626778536 x[1,2]
   + 3.504914452011707 x[1,3] + 2.044303490854853 x[1,4]
   + 3.902940617282497 x[1,5] + 2.500913009416634 x[1,6]
   + 0.9656789782860793 x[1,7] + 1.586155129894185 x[2,1]
   + 0.7912372971866725 x[2,4] + 1.099085010257056 x[2,5]
   + 2.663494519050523 x[2,6] + 0.1362769987172192 x[2,7]
   + 0.302188354360259 x[3,0] + 2.473962990208009 x[3,1]
   + 1.293707109838169 x[3,4] + 2.887649368949224 x[3,6]
   + 0.9877392784624751 x[3,7] + 4.304514806355404 x[4,1]
   + 3.725939752390442 x[4,2] + 3.383089465431022 x[4,3]
   + 0.1413697152178049 x[4,5] + 3.184885187202818 x[4,6]
   + 2.103723300372231 x[4,7] + 1.386954692355318 x[5,1]
   + 0.684036023204437 x[5,2] + 3.993012754044207 x[5,4]
   + 0.470003560983442 x[5,6] + 0.9819013143190444 x[5,7]
   + 3.894797994027093 x[6,0] + 3.401584897541354 x[6,1]
   + 3.429708931772198 x[6,2] + 4.01996052392305 x[6,3]
   + 2.454914511057236 x[6,4] + 2.668344821203763 x[6,5]
   + 0.6627800559337482 x[6,7] + 3.389261628098667 x[7,0]
   + 0.0351056224270414 x[7,1] + 0.2046979611829935 x[7,2]
   + 2.57200322653917 x[7,3] + 2.809351658190501 x[7,4]
   + 0.1372577345321722 x[7,5] + 1.627479008290101 x[7,6] + 13 u[0,1]
   + 93 u[0,3] + 95 u[0,6] + 8 u[0,7] + 17 u[1,0] + 87 u[1,2] + 10 u[1,3]
   + 77 u[1,4] + 30 u[1,5] + 87 u[1,6] + 69 u[1,7] + 20 u[2,1] + 53 u[2,4]
   + 41 u[2,5] + 6 u[2,6] + 6 u[2,7] + 66 u[3,0] + 49 u[3,1] + 34 u[3,4]
   + 91 u[3,6] + 94 u[3,7] + 5 u[4,1] + 69 u[4,2] + 28 u[4,3] + 10 u[4,5]
   + 17 u[4,6] + 47 u[4,7] + 65 u[5,1] + 47 u[5,2] + 68 u[5,4] + 91 u[5,6]
   + 89 u[5,7] + 89 u[6,0] + 70 u[6,1] + 13 u[6,2] + 66 u[6,3] + 73 u[6,4]
   + 30 u[6,5] + 17 u[6,7] + 40 u[7,0] + 64 u[7,1] + 59 u[7,2] + 3 u[7,3]
   + 55 u[7,4] + 12 u[7,5] + 88 u[7,6] <= 205
 mccormick1[0,1]: - u[0,1] + r[0,1] <= 0
 mccormick1[0,3]: - u[0,3] + r[0,3] <= 0
 mccormick1[0,6]: - u[0,6] + r[0,6] <= 0
 mccormick1[0,7]: - u[0,7] + r[0,7] <= 0
 mccormick1[1,0]: - u[1,0] + r[1,0] <= 0
 mccormick1[1,2]: - u[1,2] + r[1,2] <= 0
 mccormick1[1,3]: - u[1,3] + r[1,3] <= 0
 mccormick1[1,4]: - u[1,4] + r[1,4] <= 0
 mccormick1[1,5]: - u[1,5] + r[1,5] <= 0
 mccormick1[1,6]: - u[1,6] + r[1,6] <= 0
 mccormick1[1,7]: - u[1,7] + r[1,7] <= 0
 mccormick1[2,1]: - u[2,1] + r[2,1] <= 0
 mccormick1[2,4]: - u[2,4] + r[2,4] <= 0
 mccormick1[2,5]: - u[2,5] + r[2,5] <= 0
 mccormick1[2,6]: - u[2,6] + r[2,6] <= 0
 mccormick1[2,7]: - u[2,7] + r[2,7] <= 0
 mccormick1[3,0]: - u[3,0] + r[3,0] <= 0
 mccormick1[3,1]: - u[3,1] + r[3,1] <= 0
 mccormick1[3,4]: - u[3,4] + r[3,4] <= 0
 mccormick1[3,6]: - u[3,6] + r[3,6] <= 0
 mccormick1[3,7]: - u[3,7] + r[3,7] <= 0
 mccormick1[4,1]: - u[4,1] + r[4,1] <= 0
 mccormick1[4,2]: - u[4,2] + r[4,2] <= 0
 mccormick1[4,3]: - u[4,3] + r[4,3] <= 0
 mccormick1[4,5]: - u[4,5] + r[4,5] <= 0
 mccormick1[4,6]: - u[4,6] + r[4,6] <= 0
 mccormick1[4,7]: - u[4,7] + r[4,7] <= 0
 mccormick1[5,1]: - u[5,1] + r[5,1] <= 0
 mccormick1[5,2]: - u[5,2] + r[5,2] <= 0
 mccormick1[5,4]: - u[5,4] + r[5,4] <= 0
 mccormick1[5,6]: - u[5,6] + r[5,6] <= 0
 mccormick1[5,7]: - u[5,7] + r[5,7] <= 0
 mccormick1[6,0]: - u[6,0] + r[6,0] <= 0
 mccormick1[6,1]: - u[6,1] + r[6,1] <= 0
 mccormick1[6,2]: - u[6,2] + r[6,2] <= 0
 mccormick1[6,3]: - u[6,3] + r[6,3] <= 0
 mccormick1[6,4]: - u[6,4] + r[6,4] <= 0
 mccormick1[6,5]: - u[6,5] + r[6,5] <= 0
 mccormick1[6,7]: - u[6,7] + r[6,7] <= 0
 mccormick1[7,0]: - u[7,0] + r[7,0] <= 0
 mccormick1[7,1]: - u[7,1] + r[7,1] <= 0
 mccormick1[7,2]: - u[7,2] + r[7,2] <= 0
 mccormick1[7,3]: - u[7,3] + r[7,3] <= 0
 mccormick1[7,4]: - u[7,4] + r[7,4] <= 0
 mccormick1[7,5]: - u[7,5] + r[7,5] <= 0
 mccormick1[7,6]: - u[7,6] + r[7,6] <= 0
 mccormick2[0,1]: - y[0,1] + r[0,1] <= 0
 mccormick2[0,3]: - y[0,3] + r[0,3] <= 0
 mccormick2[0,6]: - y[0,6] + r[0,6] <= 0
 mccormick2[0,7]: - y[0,7] + r[0,7] <= 0
 mccormick2[1,0]: - y[1,0] + r[1,0] <= 0
 mccormick2[1,2]: - y[1,2] + r[1,2] <= 0
 mccormick2[1,3]: - y[1,3] + r[1,3] <= 0
 mccormick2[1,4]: - y[1,4] + r[1,4] <= 0
 mccormick2[1,5]: - y[1,5] + r[1,5] <= 0
 mccormick2[1,6]: - y[1,6] + r[1,6] <= 0
 mccormick2[1,7]: - y[1,7] + r[1,7] <= 0
 mccormick2[2,1]: - y[2,1] + r[2,1] <= 0
 mccormick2[2,4]: - y[2,4] + r[2,4] <= 0
 mccormick2[2,5]: - y[2,5] + r[2,5] <= 0
 mccormick2[2,6]: - y[2,6] + r[2,6] <= 0
 mccormick2[2,7]: - y[2,7] + r[2,7] <= 0
 mccormick2[3,0]: - y[3,0] + r[3,0] <= 0
 mccormick2[3,1]: - y[3,1] + r[3,1] <= 0
 mccormick2[3,4]: - y[3,4] + r[3,4] <= 0
 mccormick2[3,6]: - y[3,6] + r[3,6] <= 0
 mccormick2[3,7]: - y[3,7] + r[3,7] <= 0
 mccormick2[4,1]: - y[4,1] + r[4,1] <= 0
 mccormick2[4,2]: - y[4,2] + r[4,2] <= 0
 mccormick2[4,3]: - y[4,3] + r[4,3] <= 0
 mccormick2[4,5]: - y[4,5] + r[4,5] <= 0
 mccormick2[4,6]: - y[4,6] + r[4,6] <= 0
 mccormick2[4,7]: - y[4,7] + r[4,7] <= 0
 mccormick2[5,1]: - y[5,1] + r[5,1] <= 0
 mccormick2[5,2]: - y[5,2] + r[5,2] <= 0
 mccormick2[5,4]: - y[5,4] + r[5,4] <= 0
 mccormick2[5,6]: - y[5,6] + r[5,6] <= 0
 mccormick2[5,7]: - y[5,7] + r[5,7] <= 0
 mccormick2[6,0]: - y[6,0] + r[6,0] <= 0
 mccormick2[6,1]: - y[6,1] + r[6,1] <= 0
 mccormick2[6,2]: - y[6,2] + r[6,2] <= 0
 mccormick2[6,3]: - y[6,3] + r[6,3] <= 0
 mccormick2[6,4]: - y[6,4] + r[6,4] <= 0
 mccormick2[6,5]: - y[6,5] + r[6,5] <= 0
 mccormick2[6,7]: - y[6,7] + r[6,7] <= 0
 mccormick2[7,0]: - y[7,0] + r[7,0] <= 0
 mccormick2[7,1]: - y[7,1] + r[7,1] <= 0
 mccormick2[7,2]: - y[7,2] + r[7,2] <= 0
 mccormick2[7,3]: - y[7,3] + r[7,3] <= 0
 mccormick2[7,4]: - y[7,4] + r[7,4] <= 0
 mccormick2[7,5]: - y[7,5] + r[7,5] <= 0
 mccormick2[7,6]: - y[7,6] + r[7,6] <= 0
 mccormick3[0,1]: - y[0,1] - u[0,1] + r[0,1] >= -1
 mccormick3[0,3]: - y[0,3] - u[0,3] + r[0,3] >= -1
 mccormick3[0,6]: - y[0,6] - u[0,6] + r[0,6] >= -1
 mccormick3[0,7]: - y[0,7] - u[0,7] + r[0,7] >= -1
 mccormick3[1,0]: - y[1,0] - u[1,0] + r[1,0] >= -1
 mccormick3[1,2]: - y[1,2] - u[1,2] + r[1,2] >= -1
 mccormick3[1,3]: - y[1,3] - u[1,3] + r[1,3] >= -1
 mccormick3[1,4]: - y[1,4] - u[1,4] + r[1,4] >= -1
 mccormick3[1,5]: - y[1,5] - u[1,5] + r[1,5] >= -1
 mccormick3[1,6]: - y[1,6] - u[1,6] + r[1,6] >= -1
 mccormick3[1,7]: - y[1,7] - u[1,7] + r[1,7] >= -1
 mccormick3[2,1]: - y[2,1] - u[2,1] + r[2,1] >= -1
 mccormick3[2,4]: - y[2,4] - u[2,4] + r[2,4] >= -1
 mccormick3[2,5]: - y[2,5] - u[2,5] + r[2,5] >= -1
 mccormick3[2,6]: - y[2,6] - u[2,6] + r[2,6] >= -1
 mccormick3[2,7]: - y[2,7] - u[2,7] + r[2,7] >= -1
 mccormick3[3,0]: - y[3,0] - u[3,0] + r[3,0] >= -1
 mccormick3[3,1]: - y[3,1] - u[3,1] + r[3,1] >= -1
 mccormick3[3,4]: - y[3,4] - u[3,4] + r[3,4] >= -1
 mccormick3[3,6]: - y[3,6] - u[3,6] + r[3,6] >= -1
 mccormick3[3,7]: - y[3,7] - u[3,7] + r[3,7] >= -1
 mccormick3[4,1]: - y[4,1] - u[4,1] + r[4,1] >= -1
 mccormick3[4,2]: - y[4,2] - u[4,2] + r[4,2] >= -1
 mccormick3[4,3]: - y[4,3] - u[4,3] + r[4,3] >= -1
 mccormick3[4,5]: - y[4,5] - u[4,5] + r[4,5] >= -1
 mccormick3[4,6]: - y[4,6] - u[4,6] + r[4,6] >= -1
 mccormick3[4,7]: - y[4,7] - u[4,7] + r[4,7] >= -1
 mccormick3[5,1]: - y[5,1] - u[5,1] + r[5,1] >= -1
 mccormick3[5,2]: - y[5,2] - u[5,2] + r[5,2] >= -1
 mccormick3[5,4]: - y[5,4] - u[5,4] + r[5,4] >= -1
 mccormick3[5,6]: - y[5,6] - u[5,6] + r[5,6] >= -1
 mccormick3[5,7]: - y[5,7] - u[5,7] + r[5,7] >= -1
 mccormick3[6,0]: - y[6,0] - u[6,0] + r[6,0] >= -1
 mccormick3[6,1]: - y[6,1] - u[6,1] + r[6,1] >= -1
 mccormick3[6,2]: - y[6,2] - u[6,2] + r[6,2] >= -1
 mccormick3[6,3]: - y[6,3] - u[6,3] + r[6,3] >= -1
 mccormick3[6,4]: - y[6,4] - u[6,4] + r[6,4] >= -1
 mccormick3[6,5]: - y[6,5] - u[6,5] + r[6,5] >= -1
 mccormick3[6,7]: - y[6,7] - u[6,7] + r[6,7] >= -1
 mccormick3[7,0]: - y[7,0] - u[7,0] + r[7,0] >= -1
 mccormick3[7,1]: - y[7,1] - u[7,1] + r[7,1] >= -1
 mccormick3[7,2]: - y[7,2] - u[7,2] + r[7,2] >= -1
 mccormick3[7,3]: - y[7,3] - u[7,3] + r[7,3] >= -1
 mccormick3[7,4]: - y[7,4] - u[7,4] + r[7,4] >= -1
 mccormick3[7,5]: - y[7,5] - u[7,5] + r[7,5] >= -1
 mccormick3[7,6]: - y[7,6] - u[7,6] + r[7,6] >= -1
Bounds
Binaries
 y[0,1] y[0,3] y[0,6] y[0,7] y[1,0] y[1,2] y[1,3] y[1,4] y[1,5] y[1,6]
 y[1,7] y[2,1] y[2,4] y[2,5] y[2,6] y[2,7] y[3,0] y[3,1] y[3,4] y[3,6]
 y[3,7] y[4,1] y[4,2] y[4,3] y[4,5] y[4,6] y[4,7] y[5,1] y[5,2] y[5,4]
 y[5,6] y[5,7] y[6,0] y[6,1] y[6,2] y[6,3] y[6,4] y[6,5] y[6,7] y[7,0]
 y[7,1] y[7,2] y[7,3] y[7,4] y[7,5] y[7,6] x[0,1] x[0,3] x[0,6] x[0,7]
 x[1,0] x[1,2] x[1,3] x[1,4] x[1,5] x[1,6] x[1,7] x[2,1] x[2,4] x[2,5]
 x[2,6] x[2,7] x[3,0] x[3,1] x[3,4] x[3,6] x[3,7] x[4,1] x[4,2] x[4,3]
 x[4,5] x[4,6] x[4,7] x[5,1] x[5,2] x[5,4] x[5,6] x[5,7] x[6,0] x[6,1]
 x[6,2] x[6,3] x[6,4] x[6,5] x[6,7] x[7,0] x[7,1] x[7,2] x[7,3] x[7,4]
 x[7,5] x[7,6] u[0,1] u[0,3] u[0,6] u[0,7] u[1,0] u[1,2] u[1,3] u[1,4]
 u[1,5] u[1,6] u[1,7] u[2,1] u[2,4] u[2,5] u[2,6] u[2,7] u[3,0] u[3,1]
 u[3,4] u[3,6] u[3,7] u[4,1] u[4,2] u[4,3] u[4,5] u[4,6] u[4,7] u[5,1]
 u[5,2] u[5,4] u[5,6] u[5,7] u[6,0] u[6,1] u[6,2] u[6,3] u[6,4] u[6,5]
 u[6,7] u[7,0] u[7,1] u[7,2] u[7,3] u[7,4] u[7,5] u[7,6] r[0,1] r[0,3]
 r[0,6] r[0,7] r[1,0] r[1,2] r[1,3] r[1,4] r[1,5] r[1,6] r[1,7] r[2,1]
 r[2,4] r[2,5] r[2,6] r[2,7] r[3,0] r[3,1] r[3,4] r[3,6] r[3,7] r[4,1]
 r[4,2] r[4,3] r[4,5] r[4,6] r[4,7] r[5,1] r[5,2] r[5,4] r[5,6] r[5,7]
 r[6,0] r[6,1] r[6,2] r[6,3] r[6,4] r[6,5] r[6,7] r[7,0] r[7,1] r[7,2]
 r[7,3] r[7,4] r[7,5] r[7,6]
End
