instances/shortest_path/discrete/shortest_path_8_6.kp
50900
205

[4.231576691760557 0.9921714880483884 2.5103936561171483 0.839238606148319 1.9173702081667836 2.564292626778536 3.5049144520117075 2.044303490854853 3.9029406172824967 2.500913009416634 0.9656789782860793 1.5861551298941847 0.7912372971866725 1.0990850102570562 2.6634945190505235 0.13627699871721916 0.302188354360259 2.4739629902080087 1.2937071098381687 2.887649368949224 0.9877392784624751 4.304514806355404 3.7259397523904423 3.383089465431022 0.14136971521780492 3.184885187202818 2.103723300372231 1.3869546923553178 0.684036023204437 3.9930127540442073 0.470003560983442 0.9819013143190444 3.894797994027093 3.4015848975413543 3.429708931772198 4.01996052392305 2.4549145110572357 2.6683448212037635 0.6627800559337482 3.3892616280986667 0.03510562242704145 0.20469796118299352 2.5720032265391697 2.8093516581905007 0.13725773453217222 1.6274790082901005]

[13 93 95 8 17 87 10 77 30 87 69 20 53 41 6 6 66 49 34 91 94 5 69 28 10 17 47 65 47 68 91 89 89 70 13 66 73 30 17 40 64 59 3 55 12 88]
